c "400035.clq"
p edge 80 304
e 1 5
e 1 6
e 1 8
e 1 20
e 2 5
e 2 7
e 2 10
e 2 12
e 2 15
e 2 20
e 2 22
e 2 30
e 2 39
e 2 41
e 2 55
e 2 59
e 2 73
e 2 76
e 3 5
e 3 6
e 3 26
e 3 63
e 4 5
e 4 6
e 4 7
e 4 8
e 4 9
e 4 15
e 4 19
e 4 29
e 4 31
e 4 40
e 4 43
e 4 48
e 4 54
e 4 78
e 5 6
e 5 7
e 5 8
e 5 9
e 5 10
e 5 11
e 5 13
e 5 14
e 5 17
e 5 18
e 5 24
e 5 26
e 5 28
e 5 29
e 5 33
e 5 35
e 5 36
e 5 44
e 5 49
e 5 52
e 5 65
e 5 68
e 5 70
e 5 72
e 5 73
e 6 7
e 6 9
e 6 10
e 6 11
e 6 12
e 6 15
e 6 16
e 6 17
e 6 21
e 6 25
e 6 32
e 6 33
e 6 37
e 6 45
e 6 55
e 6 57
e 6 58
e 6 62
e 6 64
e 6 70
e 6 74
e 6 76
e 6 77
e 6 78
e 7 8
e 7 9
e 7 12
e 7 16
e 7 17
e 7 19
e 7 23
e 7 25
e 7 26
e 7 44
e 7 47
e 7 57
e 7 61
e 7 62
e 7 67
e 7 70
e 7 74
e 8 11
e 8 13
e 8 16
e 8 24
e 8 27
e 8 30
e 8 32
e 8 42
e 8 46
e 8 49
e 8 50
e 8 52
e 8 53
e 8 61
e 9 10
e 9 14
e 9 18
e 9 39
e 9 50
e 9 60
e 9 78
e 10 11
e 10 12
e 10 13
e 10 16
e 10 18
e 10 19
e 10 26
e 10 27
e 10 35
e 10 36
e 11 13
e 11 14
e 11 25
e 11 32
e 11 35
e 11 40
e 11 55
e 11 58
e 12 18
e 12 20
e 12 27
e 12 30
e 12 34
e 12 46
e 12 59
e 12 61
e 12 65
e 13 14
e 13 17
e 13 20
e 13 24
e 13 30
e 13 31
e 13 33
e 13 34
e 13 41
e 13 43
e 13 47
e 13 59
e 13 63
e 13 65
e 13 67
e 13 69
e 13 71
e 13 80
e 14 15
e 14 21
e 14 22
e 14 29
e 14 34
e 14 39
e 14 47
e 14 53
e 14 73
e 14 75
e 14 77
e 15 51
e 15 62
e 15 72
e 16 19
e 16 21
e 16 22
e 16 23
e 16 24
e 16 25
e 16 28
e 16 41
e 16 45
e 16 48
e 16 50
e 16 54
e 16 55
e 16 58
e 16 64
e 16 70
e 17 21
e 17 34
e 17 54
e 17 66
e 18 22
e 18 23
e 18 29
e 18 36
e 18 39
e 18 53
e 18 59
e 19 23
e 19 32
e 19 37
e 19 46
e 19 62
e 19 66
e 20 31
e 20 35
e 20 38
e 20 49
e 20 64
e 20 72
e 21 75
e 21 79
e 22 37
e 22 43
e 22 48
e 22 56
e 23 31
e 23 79
e 24 37
e 24 42
e 24 48
e 24 53
e 24 54
e 24 67
e 24 74
e 24 80
e 25 28
e 25 50
e 25 51
e 25 56
e 25 57
e 26 27
e 26 36
e 26 40
e 26 42
e 26 64
e 27 28
e 27 33
e 27 68
e 27 76
e 30 43
e 30 45
e 31 38
e 31 44
e 31 51
e 31 60
e 31 69
e 31 73
e 32 38
e 32 42
e 32 58
e 33 63
e 34 40
e 34 52
e 36 46
e 37 38
e 37 51
e 38 45
e 38 66
e 38 74
e 40 41
e 40 63
e 40 80
e 41 60
e 42 44
e 42 79
e 43 69
e 44 47
e 44 75
e 47 56
e 47 57
e 48 49
e 48 52
e 48 69
e 48 78
e 48 80
e 49 71
e 51 66
e 51 71
e 52 76
e 53 72
e 53 77
e 54 60
e 54 71
e 55 56
e 57 61
e 57 68
e 60 65
e 60 68
e 62 67
e 71 75
e 73 77
e 74 79
